\ENCODING=ISO-8859-1
\Problem name: ilog.cplex

Maximize
 obj: 2 g(0)(0)#0 + 2 g(1)(0)#1 + 5 g(2)(0)#2 + 5 g(3)(0)#3 + 2 g(4)(0)#4
      + 2 g(5)(0)#5 + g(0)(1)#6 + 3 g(1)(1)#7 + 3 g(4)(1)#10 + 3 g(5)(1)#11
      + 3 g(0)(2)#12 + 7 g(1)(2)#13 + 3 g(2)(2)#14 + 3 g(3)(2)#15
      + 7 g(4)(2)#16 + 7 g(5)(2)#17
Subject To
 Proba_Theta0#0:   g(0)(0)#0 + g(1)(0)#1 + g(2)(0)#2 + g(3)(0)#3 + g(4)(0)#4
                   + g(5)(0)#5  = 1
 Proba_Theta1#1:   g(0)(1)#6 + g(1)(1)#7 + g(2)(1)#8 + g(3)(1)#9 + g(4)(1)#10
                   + g(5)(1)#11  = 1
 Proba_Theta2#2:   g(0)(2)#12 + g(1)(2)#13 + g(2)(2)#14 + g(3)(2)#15
                   + g(4)(2)#16 + g(5)(2)#17  = 1
 Proba_Theta3#3:   g(0)(3)#18 + g(1)(3)#19 + g(2)(3)#20 + g(3)(3)#21
                   + g(4)(3)#22 + g(5)(3)#23  = 1
 Proba_Theta4#4:   g(0)(4)#24 + g(1)(4)#25 + g(2)(4)#26 + g(3)(4)#27
                   + g(4)(4)#28 + g(5)(4)#29  = 1
 Proba_Theta5#5:   g(0)(5)#30 + g(1)(5)#31 + g(2)(5)#32 + g(3)(5)#33
                   + g(4)(5)#34 + g(5)(5)#35  = 1
 c7#6:             >= 0
 c9#7:             >= 0
 c11#8:            3 g(2)(0)#2 >= 0
 c13#9:            3 g(3)(0)#3 >= 0
 c15#10:           >= 0
 c17#11:           >= 0
 c19#12:           >= 0
 c20#13:           >= 0
 c21#14:           4 g(2)(1)#8 >= 0
 c22#15:           4 g(3)(1)#9 >= 0
 c23#16:           >= 0
 c24#17:           >= 0
 c25#18:           >= 0
 c26#19:           >= 0
 c27#20:           4 g(2)(2)#14 >= 0
 c28#21:           4 g(3)(2)#15 >= 0
 c29#22:           >= 0
 c30#23:           >= 0
 c31#24:           >= 0
 c32#25:           >= 0
 c33#26:           >= 0
 c34#27:           >= 0
 c35#28:           >= 0
 c36#29:           >= 0
 c37#30:           >= 0
 c38#31:           >= 0
 c39#32:           >= 0
 c40#33:           >= 0
 c41#34:           >= 0
 c42#35:           >= 0
 c43#36:           >= 0
 c44#37:           >= 0
 c45#38:           >= 0
 c46#39:           >= 0
 c47#40:           >= 0
 c48#41:           >= 0
 c49#42:           >= 0
 c50#43:           - g(1)(0)#1 >= 0
 c51#44:           - 2 g(2)(0)#2 >= 0
 c52#45:           - 2 g(3)(0)#3 >= 0
 c53#46:           - g(4)(0)#4 >= 0
 c54#47:           - g(5)(0)#5 >= 0
 c55#48:           >= 0
 c56#49:           2 g(1)(1)#7 >= 0
 c57#50:           - g(2)(1)#8 >= 0
 c58#51:           - g(3)(1)#9 >= 0
 c59#52:           2 g(4)(1)#10 >= 0
 c60#53:           2 g(5)(1)#11 >= 0
 c61#54:           >= 0
 c62#55:           - 4 g(1)(2)#13 >= 0
 c63#56:           - 4 g(2)(2)#14 >= 0
 c64#57:           - 4 g(3)(2)#15 >= 0
 c65#58:           - 4 g(4)(2)#16 >= 0
 c66#59:           - 4 g(5)(2)#17 >= 0
 c67#60:           >= 0
 c68#61:           >= 0
 c69#62:           >= 0
 c70#63:           >= 0
 c71#64:           >= 0
 c72#65:           >= 0
 c73#66:           >= 0
 c74#67:           >= 0
 c75#68:           >= 0
 c76#69:           >= 0
 c77#70:           >= 0
 c78#71:           >= 0
 c79#72:           >= 0
 c80#73:           >= 0
 c81#74:           >= 0
 c82#75:           >= 0
 c83#76:           >= 0
 c84#77:           >= 0
 c85#78:           >= 0
 c86#79:           g(1)(0)#1 >= 0
 c87#80:           - g(2)(0)#2 >= 0
 c88#81:           - g(3)(0)#3 >= 0
 c89#82:           g(4)(0)#4 >= 0
 c90#83:           g(5)(0)#5 >= 0
 c91#84:           >= 0
 c92#85:           - 2 g(1)(1)#7 >= 0
 c93#86:           - 3 g(2)(1)#8 >= 0
 c94#87:           - 3 g(3)(1)#9 >= 0
 c95#88:           - 2 g(4)(1)#10 >= 0
 c96#89:           - 2 g(5)(1)#11 >= 0
 c97#90:           >= 0
 c98#91:           4 g(1)(2)#13 >= 0
 c99#92:           >= 0
 c100#93:          >= 0
 c101#94:          4 g(4)(2)#16 >= 0
 c102#95:          4 g(5)(2)#17 >= 0
 c103#96:          >= 0
 c104#97:          >= 0
 c105#98:          >= 0
 c106#99:          >= 0
 c107#100:         >= 0
 c108#101:         >= 0
 c109#102:         >= 0
 c110#103:         >= 0
 c111#104:         >= 0
 c112#105:         >= 0
 c113#106:         >= 0
 c114#107:         >= 0
 c115#108:         >= 0
 c116#109:         >= 0
 c117#110:         >= 0
 c118#111:         >= 0
 c119#112:         >= 0
 c121#113:         >= 0
 IC_A0,Theta0#114: 2 g(0)(0)#0 + 2 g(1)(0)#1 + 5 g(2)(0)#2 + 5 g(3)(0)#3
                   + 2 g(4)(0)#4 + 2 g(5)(0)#5 - 2 g(0)(3)#18 - 2 g(1)(3)#19
                   - 5 g(2)(3)#20 - 5 g(3)(3)#21 - 2 g(4)(3)#22 - 2 g(5)(3)#23
                   >= 0
 IC_A1,Theta1#115: g(0)(1)#6 + 3 g(1)(1)#7 + 3 g(4)(1)#10 + 3 g(5)(1)#11
                   - g(0)(4)#24 - 3 g(1)(4)#25 - 3 g(4)(4)#28 - 3 g(5)(4)#29
                   >= 0
 IC_A2,Theta2#116: 3 g(0)(2)#12 + 7 g(1)(2)#13 + 3 g(2)(2)#14 + 3 g(3)(2)#15
                   + 7 g(4)(2)#16 + 7 g(5)(2)#17 - 3 g(0)(5)#30 - 7 g(1)(5)#31
                   - 3 g(2)(5)#32 - 3 g(3)(5)#33 - 7 g(4)(5)#34 - 7 g(5)(5)#35
                   >= 0
Bounds
 0 <= g(0)(0)#0 <= 1
 0 <= g(1)(0)#1 <= 1
 0 <= g(2)(0)#2 <= 1
 0 <= g(3)(0)#3 <= 1
 0 <= g(4)(0)#4 <= 1
 0 <= g(5)(0)#5 <= 1
 0 <= g(0)(1)#6 <= 1
 0 <= g(1)(1)#7 <= 1
 0 <= g(2)(1)#8 <= 1
 0 <= g(3)(1)#9 <= 1
 0 <= g(4)(1)#10 <= 1
 0 <= g(5)(1)#11 <= 1
 0 <= g(0)(2)#12 <= 1
 0 <= g(1)(2)#13 <= 1
 0 <= g(2)(2)#14 <= 1
 0 <= g(3)(2)#15 <= 1
 0 <= g(4)(2)#16 <= 1
 0 <= g(5)(2)#17 <= 1
 0 <= g(0)(3)#18 <= 1
 0 <= g(1)(3)#19 <= 1
 0 <= g(2)(3)#20 <= 1
 0 <= g(3)(3)#21 <= 1
 0 <= g(4)(3)#22 <= 1
 0 <= g(5)(3)#23 <= 1
 0 <= g(0)(4)#24 <= 1
 0 <= g(1)(4)#25 <= 1
 0 <= g(2)(4)#26 <= 1
 0 <= g(3)(4)#27 <= 1
 0 <= g(4)(4)#28 <= 1
 0 <= g(5)(4)#29 <= 1
 0 <= g(0)(5)#30 <= 1
 0 <= g(1)(5)#31 <= 1
 0 <= g(2)(5)#32 <= 1
 0 <= g(3)(5)#33 <= 1
 0 <= g(4)(5)#34 <= 1
 0 <= g(5)(5)#35 <= 1
Binaries
 g(0)(0)#0  g(1)(0)#1  g(2)(0)#2  g(3)(0)#3  g(4)(0)#4  g(5)(0)#5  g(0)(1)#6 
 g(1)(1)#7  g(2)(1)#8  g(3)(1)#9  g(4)(1)#10  g(5)(1)#11  g(0)(2)#12 
 g(1)(2)#13  g(2)(2)#14  g(3)(2)#15  g(4)(2)#16  g(5)(2)#17  g(0)(3)#18 
 g(1)(3)#19  g(2)(3)#20  g(3)(3)#21  g(4)(3)#22  g(5)(3)#23  g(0)(4)#24 
 g(1)(4)#25  g(2)(4)#26  g(3)(4)#27  g(4)(4)#28  g(5)(4)#29  g(0)(5)#30 
 g(1)(5)#31  g(2)(5)#32  g(3)(5)#33  g(4)(5)#34  g(5)(5)#35 
End
